<instance format="XCSP3" type="COP">
  <variables>
    <array id="fe" note="Variables pour les fréquences d'émission et de réception pour chaque station" size="[50]">
      <domain for="fe[0]"> 14 28 42 56 84 98 126 140 168 182 196 210 238 266 280 308 322 336 350 364 378 392 406 420 434 448 462 476 490 504 518 546 560 588 602 616 630 644 658 686 700 714 728 </domain>
      <domain for="fe[1]"> 14 28 42 56 70 84 98 112 126 140 154 168 182 196 210 224 238 252 266 280 294 308 322 336 350 364 378 392 406 434 448 462 476 490 504 518 532 546 560 574 588 602 616 630 644 658 672 686 700 714 728 </domain>
      <domain for="fe[2]"> 14 42 56 70 84 98 112 126 140 154 168 196 210 224 238 252 294 308 322 336 350 364 378 392 406 420 434 448 462 476 490 504 518 532 560 574 588 630 644 658 700 714 728 </domain>
      <domain for="fe[3]"> 14 42 56 70 84 98 112 126 140 154 168 196 210 224 238 252 266 280 294 308 322 336 378 392 406 420 434 448 462 490 504 518 532 546 560 574 588 602 616 630 644 658 672 686 700 714 </domain>
      <domain for="fe[4]"> 28 42 56 70 84 98 112 126 140 154 168 182 196 210 224 238 252 266 280 294 308 322 336 350 364 378 392 406 420 434 448 462 476 490 504 518 532 560 574 588 602 616 630 644 658 672 686 700 714 728 </domain>
      <domain for="fe[5] fe[15..16] fe[20] fe[22]"> 14 28 42 56 70 84 98 112 126 140 154 168 182 196 210 224 238 252 266 280 294 308 322 336 350 364 378 392 406 420 434 448 462 476 490 504 518 532 546 560 574 588 602 616 630 644 658 672 686 700 714 728 </domain>
      <domain for="fe[6]"> 14 28 42 70 84 98 112 126 140 154 168 182 196 210 224 238 252 266 280 294 308 322 350 364 392 406 420 476 490 504 518 532 546 560 574 602 616 630 644 658 672 686 700 714 728 </domain>
      <domain for="fe[7]"> 14 28 42 56 70 84 98 112 126 140 168 182 196 210 224 238 252 266 280 294 350 364 378 392 406 420 434 448 476 490 504 518 532 546 560 588 602 616 644 700 728 </domain>
      <domain for="fe[8]"> 28 42 56 70 140 154 168 182 196 210 238 252 266 280 294 322 336 350 378 406 420 434 448 462 476 504 518 532 546 560 574 602 616 630 644 658 672 686 700 714 </domain>
      <domain for="fe[9]"> 14 42 56 70 84 98 112 126 140 154 168 182 196 210 224 238 252 266 280 294 308 322 336 350 364 378 392 406 420 476 490 504 518 546 588 616 630 658 672 700 714 </domain>
      <domain for="fe[10]"> 14 42 56 70 84 98 112 126 140 154 168 182 196 210 224 238 252 266 280 294 308 322 336 350 364 392 406 420 434 448 476 490 504 518 532 546 574 588 602 616 630 644 658 672 686 700 714 </domain>
      <domain for="fe[11]"> 14 28 42 56 70 84 98 112 126 140 154 168 182 196 210 238 252 266 280 294 308 322 336 350 364 378 406 420 434 448 462 476 490 504 518 532 546 560 574 588 602 616 630 644 672 686 714 728 </domain>
      <domain for="fe[12]"> 14 28 42 56 70 84 98 126 140 154 168 182 196 210 224 238 252 266 280 294 308 322 336 350 364 378 392 406 420 434 448 462 476 490 504 518 532 546 560 574 588 602 616 630 644 658 672 686 700 714 728 </domain>
      <domain for="fe[13]"> 28 42 56 70 84 98 112 126 140 154 168 182 196 224 238 266 280 294 308 322 336 350 364 378 392 406 420 434 448 462 476 490 504 518 532 546 560 574 588 602 630 644 658 672 700 714 </domain>
      <domain for="fe[14]"> 14 28 42 56 70 84 98 112 126 140 154 168 196 210 224 238 252 280 294 308 336 350 364 378 392 406 434 448 462 476 490 518 546 560 574 588 602 630 644 658 672 700 714 728 </domain>
      <domain for="fe[17]"> 14 28 42 56 70 84 126 140 154 168 182 210 224 238 252 266 280 336 350 406 420 434 448 462 476 490 504 518 532 546 560 574 588 602 630 644 658 672 686 714 728 </domain>
      <domain for="fe[18]"> 14 28 42 56 70 84 98 112 140 168 182 196 224 238 252 266 280 294 308 322 350 392 406 420 434 448 462 490 504 518 532 546 560 574 588 602 616 644 700 714 728 </domain>
      <domain for="fe[19]"> 14 28 56 70 84 98 112 126 140 168 182 196 210 224 238 266 280 294 308 322 350 364 392 406 434 448 462 476 504 532 546 560 574 588 616 630 658 672 686 714 728 </domain>
      <domain for="fe[21]"> 14 28 42 56 70 84 98 140 168 182 196 210 224 238 252 266 280 294 336 350 364 378 392 406 420 434 462 476 504 532 546 560 574 588 602 630 644 658 686 728 </domain>
      <domain for="fe[23]"> 14 28 42 70 98 112 126 140 168 182 196 210 224 238 252 266 280 294 308 322 336 364 378 392 406 420 476 490 504 518 532 560 574 588 602 616 630 644 658 672 686 700 714 </domain>
      <domain for="fe[24]"> 14 28 42 56 70 84 98 112 126 140 154 168 182 196 210 224 238 252 266 280 294 308 322 336 350 364 378 392 406 420 434 462 476 490 504 518 532 546 560 574 588 602 630 644 658 672 686 700 714 728 </domain>
      <domain for="fe[25]"> 14 28 42 56 70 84 98 112 126 140 154 168 182 196 210 224 252 266 280 308 322 336 350 378 392 406 420 434 448 462 476 490 504 532 546 560 574 588 602 616 630 658 672 686 700 714 728 </domain>
      <domain for="fe[26]"> 14 28 42 56 70 84 98 112 126 140 168 182 196 210 224 238 252 266 280 294 308 322 336 364 378 392 406 434 448 490 504 546 560 574 588 616 644 658 672 686 700 714 728 </domain>
      <domain for="fe[27]"> 14 28 42 56 70 84 98 126 140 154 168 182 196 210 224 238 252 266 280 294 322 336 350 364 392 406 420 434 448 462 476 504 518 532 546 560 574 602 616 630 644 658 672 686 700 714 728 </domain>
      <domain for="fe[28]"> 14 28 42 56 70 84 98 112 126 154 168 210 224 238 252 280 294 308 322 336 350 364 378 392 420 434 448 462 476 504 518 532 546 560 588 616 644 658 700 714 728 </domain>
      <domain for="fe[29]"> 14 28 42 56 70 84 98 126 140 168 182 196 210 224 238 252 266 280 294 308 322 336 350 364 378 392 406 420 434 448 462 476 490 504 518 532 560 574 588 616 630 644 658 672 686 700 714 728 </domain>
      <domain for="fe[30]"> 14 28 42 56 84 98 112 126 154 168 182 196 224 238 252 266 280 294 308 322 336 350 364 378 392 406 420 434 448 462 476 490 504 518 532 546 560 574 602 616 630 644 658 686 700 714 728 </domain>
      <domain for="fe[31]"> 14 42 56 70 84 98 112 126 140 154 168 182 196 210 224 238 252 266 280 294 308 322 336 364 378 392 406 420 434 448 462 476 490 504 532 546 560 574 588 602 616 630 644 658 672 686 700 714 728 </domain>
      <domain for="fe[32]"> 14 28 42 56 70 98 112 140 154 168 182 210 224 238 252 266 280 294 308 322 350 364 378 392 406 420 434 490 504 518 532 546 588 602 616 630 644 658 672 686 700 714 728 </domain>
      <domain for="fe[33]"> 14 28 42 56 70 84 98 112 126 140 154 168 182 196 210 224 238 252 266 280 294 308 322 336 350 364 378 392 406 420 434 448 462 476 490 504 518 532 546 560 574 588 602 630 644 658 672 686 700 714 728 </domain>
      <domain for="fe[34]"> 14 28 42 56 70 84 98 112 126 140 154 168 182 196 210 224 238 252 266 280 294 308 336 350 378 392 406 420 434 448 462 476 490 504 518 532 546 560 574 588 602 616 630 644 658 672 686 700 714 728 </domain>
      <domain for="fe[35]"> 14 28 42 56 70 84 98 112 126 140 154 168 196 210 224 238 252 308 322 336 350 364 378 392 406 420 434 448 462 476 490 504 518 532 546 560 574 588 602 616 630 644 658 672 686 700 714 728 </domain>
      <domain for="fe[36]"> 14 28 42 56 84 112 126 140 154 168 182 196 210 224 238 252 266 280 294 308 322 336 350 364 378 392 406 420 434 448 462 476 490 504 518 532 546 560 574 588 602 616 630 644 672 686 700 714 728 </domain>
      <domain for="fe[37]"> 28 42 56 84 98 126 140 154 168 182 196 210 238 252 266 280 294 308 322 336 364 378 392 434 462 476 504 518 532 546 560 574 588 602 616 630 644 672 686 714 728 </domain>
      <domain for="fe[38]"> 14 28 56 70 84 112 140 168 182 210 224 238 252 266 280 294 308 322 336 364 378 392 406 434 448 462 476 490 504 518 532 546 560 574 588 602 630 658 672 686 700 728 </domain>
      <domain for="fe[39]"> 14 28 42 56 70 84 98 112 126 140 154 168 182 196 210 224 238 252 266 294 308 322 336 350 378 392 406 420 434 462 476 490 504 518 532 546 574 588 602 616 630 644 658 672 700 728 </domain>
      <domain for="fe[40]"> 28 42 56 70 84 112 126 140 154 168 182 196 210 224 252 266 280 308 350 364 378 392 406 434 462 476 490 504 518 532 546 560 574 588 602 616 630 658 672 686 700 714 728 </domain>
      <domain for="fe[41]"> 14 28 42 56 70 84 98 112 126 140 154 182 196 210 224 252 280 294 308 322 336 364 378 392 406 420 434 448 462 476 490 504 518 532 546 560 574 588 602 616 630 644 658 686 700 714 728 </domain>
      <domain for="fe[42]"> 14 28 42 56 70 98 112 126 140 154 196 210 224 238 252 280 294 308 322 336 350 364 378 392 406 420 448 462 476 490 504 518 532 546 560 602 616 630 644 658 672 700 714 728 </domain>
      <domain for="fe[43]"> 42 56 70 84 98 112 126 154 168 182 224 252 266 280 294 308 322 350 364 378 392 406 420 434 448 462 476 504 518 532 546 560 574 588 602 616 630 658 686 700 714 728 </domain>
      <domain for="fe[44]"> 28 42 126 140 154 182 196 210 224 252 266 280 294 308 322 336 350 364 392 434 448 462 476 490 504 518 532 546 560 574 588 602 616 630 644 658 672 686 700 714 728 </domain>
      <domain for="fe[45]"> 14 28 42 98 112 126 140 154 168 182 196 210 224 238 266 280 294 308 336 350 364 378 392 406 420 434 448 462 476 490 504 518 532 546 560 574 588 602 616 630 644 658 672 686 700 714 728 </domain>
      <domain for="fe[46]"> 14 28 42 70 84 98 126 154 168 182 196 210 224 238 252 266 280 294 308 322 336 350 364 378 392 406 420 434 448 462 476 490 504 518 532 546 560 574 588 630 644 658 672 686 700 714 728 </domain>
      <domain for="fe[47]"> 14 28 42 56 84 98 112 126 140 154 182 210 224 238 252 266 280 294 308 322 336 350 364 392 406 420 434 448 462 476 490 504 518 532 546 560 574 602 616 630 644 658 686 700 714 728 </domain>
      <domain for="fe[48]"> 14 28 42 56 70 84 98 112 126 140 154 168 182 196 210 224 238 252 266 280 294 308 322 336 364 378 392 406 420 434 448 476 490 504 518 532 546 560 574 588 602 616 630 644 658 672 686 700 714 728 </domain>
      <domain for="fe[49]"> 14 28 42 56 70 84 98 112 126 140 154 168 182 196 210 224 238 252 266 280 294 308 322 350 364 392 406 420 434 448 462 476 490 504 518 532 546 560 574 588 602 616 630 644 658 672 686 700 714 728 </domain>
    </array>
    <array id="fr" size="[50]">
      <domain for="fr[0]"> 14 28 42 56 70 84 98 112 126 140 154 168 182 196 210 224 238 252 266 280 294 308 322 336 350 364 378 392 406 420 434 448 462 476 490 504 518 532 546 560 574 588 602 630 644 658 672 686 700 714 728 </domain>
      <domain for="fr[1] fr[29]"> 14 28 42 56 70 84 98 112 126 140 154 168 182 196 210 224 238 252 266 280 294 308 322 336 350 364 378 392 406 420 434 448 462 476 490 504 518 532 546 560 574 588 602 616 630 658 672 686 700 714 728 </domain>
      <domain for="fr[2]"> 14 28 42 56 70 84 98 126 140 154 182 196 210 224 238 252 266 280 322 350 378 392 406 420 434 448 462 476 490 504 518 532 546 560 588 602 616 630 644 672 700 714 </domain>
      <domain for="fr[3]"> 14 28 42 70 84 112 126 154 168 182 196 210 224 238 252 266 280 294 308 322 336 350 364 392 406 434 448 462 476 490 504 518 532 546 560 574 588 602 616 630 658 672 686 714 728 </domain>
      <domain for="fr[4]"> 14 42 56 70 84 112 126 140 154 168 182 196 210 238 252 266 280 294 308 322 336 350 364 378 392 406 420 434 448 462 476 490 504 518 532 546 560 574 588 602 616 630 644 672 686 700 714 728 </domain>
      <domain for="fr[5] fr[25] fr[31]"> 14 28 42 56 70 84 98 112 126 140 154 168 182 196 210 224 238 252 266 280 294 308 322 336 350 364 378 392 406 420 434 448 462 476 490 504 518 532 546 560 574 588 602 616 630 644 658 672 686 700 714 728 </domain>
      <domain for="fr[6]"> 14 28 42 70 84 98 112 140 154 168 182 196 224 238 252 266 280 294 308 336 350 364 378 392 420 448 462 476 504 518 532 546 560 574 588 602 616 630 644 658 672 686 </domain>
      <domain for="fr[7]"> 14 28 42 56 70 84 98 126 140 154 168 182 196 210 224 238 252 266 280 294 308 322 336 350 364 378 392 406 420 434 448 462 476 490 504 518 532 546 560 574 588 602 616 630 644 658 672 686 700 714 728 </domain>
      <domain for="fr[8]"> 14 28 42 56 70 84 98 112 126 140 154 168 182 196 210 224 238 252 266 280 294 308 322 336 350 364 392 406 420 434 448 462 476 490 504 532 546 560 574 588 602 616 630 644 658 672 686 700 714 728 </domain>
      <domain for="fr[9]"> 28 42 70 84 98 112 126 140 182 224 238 252 266 280 294 308 322 336 350 364 378 392 406 420 434 448 462 476 490 518 532 546 560 574 588 602 630 658 672 686 700 714 </domain>
      <domain for="fr[10]"> 14 28 42 84 98 112 126 140 154 168 182 196 210 238 252 266 280 294 308 336 350 364 378 392 406 420 434 462 476 490 504 518 532 546 560 574 588 602 616 644 658 672 686 700 714 728 </domain>
      <domain for="fr[11]"> 14 28 42 56 70 84 98 126 140 154 168 182 196 224 238 252 266 280 294 308 322 336 350 364 378 392 406 434 448 462 476 490 504 518 532 560 574 588 602 630 658 672 686 700 714 728 </domain>
      <domain for="fr[12]"> 14 28 42 56 70 84 98 112 126 154 168 182 224 238 252 266 294 308 322 336 364 378 392 406 420 434 448 462 476 490 504 518 546 560 574 588 602 616 630 644 658 672 714 728 </domain>
      <domain for="fr[13]"> 14 28 42 56 70 84 98 112 126 140 182 196 210 224 238 266 280 294 322 336 364 378 392 406 420 448 462 476 490 518 532 546 560 574 588 602 616 630 644 658 686 714 728 </domain>
      <domain for="fr[14]"> 28 42 56 70 84 98 126 168 182 196 210 224 252 266 280 294 308 322 336 350 364 378 392 448 462 476 490 504 518 532 546 574 630 644 658 672 686 700 714 728 </domain>
      <domain for="fr[15]"> 14 28 70 84 98 112 126 140 154 168 224 252 266 280 294 322 336 364 378 392 406 448 462 476 490 518 532 546 560 574 588 602 616 630 644 658 686 700 714 728 </domain>
      <domain for="fr[16]"> 14 28 42 56 70 84 98 112 168 182 196 238 252 266 280 294 308 322 336 350 364 392 406 420 434 448 462 490 504 518 532 546 560 574 588 602 616 630 644 658 672 686 700 714 728 </domain>
      <domain for="fr[17]"> 14 28 42 70 84 126 140 154 182 196 210 224 238 252 266 280 294 308 336 350 364 378 392 406 434 448 462 476 490 504 518 546 560 574 588 602 630 644 658 672 686 700 714 728 </domain>
      <domain for="fr[18]"> 14 28 42 56 70 84 98 126 140 154 168 196 210 224 238 252 266 280 294 308 322 350 364 392 434 448 476 490 504 518 532 560 574 588 602 616 630 644 672 686 700 714 728 </domain>
      <domain for="fr[19]"> 14 28 42 56 70 112 126 154 168 182 196 210 224 238 252 266 280 294 308 322 336 350 364 378 392 406 448 462 476 490 504 518 532 546 560 588 602 616 630 644 658 686 700 714 728 </domain>
      <domain for="fr[20]"> 14 28 42 56 70 84 98 126 140 154 168 182 196 210 224 252 266 280 294 308 322 336 350 364 378 392 406 420 448 462 476 490 504 518 546 560 574 588 602 616 630 644 672 686 700 714 728 </domain>
      <domain for="fr[21]"> 14 28 42 56 70 84 98 112 126 140 168 182 196 210 224 238 252 266 280 294 308 336 350 364 378 392 406 420 448 462 476 490 504 518 532 546 560 588 602 616 630 644 658 672 686 700 714 728 </domain>
      <domain for="fr[22]"> 14 42 56 70 84 98 112 126 154 168 182 196 210 224 266 280 308 336 350 364 378 392 406 420 434 448 462 476 504 518 546 560 574 588 602 630 644 672 700 714 </domain>
      <domain for="fr[23]"> 14 28 42 56 70 84 98 112 140 154 168 182 196 210 224 238 252 266 280 294 308 336 350 364 378 392 406 420 448 462 476 490 504 518 532 546 560 574 588 602 616 630 644 658 672 686 700 714 728 </domain>
      <domain for="fr[24]"> 14 28 42 56 70 84 98 112 126 140 154 182 196 210 224 252 266 280 294 308 336 350 364 378 392 406 420 434 448 462 476 490 504 518 532 546 560 574 588 602 616 658 672 686 700 728 </domain>
      <domain for="fr[26]"> 14 28 42 56 70 84 98 112 126 140 154 168 182 196 210 224 238 252 266 280 294 308 322 336 350 364 378 406 420 434 448 462 476 490 504 518 532 546 560 574 588 602 616 630 644 658 672 686 714 728 </domain>
      <domain for="fr[27]"> 14 28 42 56 70 84 98 112 126 140 154 168 182 196 210 224 238 252 266 280 294 308 322 336 350 364 378 392 406 420 434 462 476 504 518 532 546 560 574 588 602 616 630 644 658 672 700 714 728 </domain>
      <domain for="fr[28]"> 14 28 42 70 84 98 112 126 140 154 168 196 210 224 238 252 266 280 294 308 322 336 350 364 378 392 420 434 448 476 490 518 532 546 560 574 588 602 616 630 644 658 686 700 714 728 </domain>
      <domain for="fr[30]"> 14 28 42 56 70 98 112 126 140 154 168 182 210 224 238 252 266 280 294 308 322 336 350 364 378 392 420 434 448 462 476 490 532 546 560 588 616 630 644 658 686 700 714 728 </domain>
      <domain for="fr[32]"> 14 28 42 56 70 84 98 112 126 154 168 182 196 210 224 238 252 266 280 294 308 322 336 350 364 378 392 406 420 434 448 462 476 490 504 518 532 546 560 574 588 602 630 644 658 672 686 700 714 728 </domain>
      <domain for="fr[33]"> 14 28 42 56 70 84 98 112 126 140 154 168 182 196 210 224 238 252 266 280 294 308 322 336 350 364 378 392 406 420 434 448 462 476 490 504 518 546 560 574 616 630 644 658 672 686 700 714 728 </domain>
      <domain for="fr[34]"> 14 28 42 56 70 84 98 140 154 168 182 196 210 224 238 252 266 280 294 308 322 336 364 392 406 420 434 448 462 476 490 504 518 532 546 560 574 602 616 630 644 658 672 686 700 728 </domain>
      <domain for="fr[35]"> 28 56 70 84 98 112 126 140 154 182 196 210 224 238 252 266 280 308 322 364 378 406 420 434 448 462 476 490 504 518 532 546 560 574 588 602 630 658 672 686 700 714 </domain>
      <domain for="fr[36]"> 28 42 56 70 84 98 126 140 154 182 196 238 266 294 308 322 336 350 364 378 392 406 420 434 448 462 476 490 504 518 532 546 560 574 588 602 616 630 644 658 672 686 700 728 </domain>
      <domain for="fr[37]"> 14 28 42 56 70 84 112 126 140 168 196 224 238 252 266 280 294 308 322 336 350 364 378 392 406 420 434 448 462 476 490 504 518 546 560 574 588 602 616 630 644 658 672 686 700 714 </domain>
      <domain for="fr[38]"> 14 28 42 56 70 84 98 112 126 140 154 168 182 196 210 224 238 252 266 280 294 308 336 350 364 378 392 406 420 434 448 462 476 490 504 518 532 546 560 574 588 602 616 630 644 672 686 700 714 728 </domain>
      <domain for="fr[39]"> 14 28 42 56 70 98 112 126 140 154 168 196 210 224 238 252 266 280 294 308 322 336 350 364 378 392 406 420 434 448 462 476 490 504 518 532 546 560 574 588 602 616 630 644 658 672 686 700 714 728 </domain>
      <domain for="fr[40]"> 14 28 42 56 70 84 98 112 126 140 154 168 182 196 210 224 238 252 266 280 294 308 322 350 364 378 392 406 420 434 448 476 490 504 518 546 560 574 588 602 616 630 644 658 672 686 700 714 728 </domain>
      <domain for="fr[41]"> 14 28 42 56 70 84 98 112 126 140 154 168 182 196 210 224 238 252 266 280 294 308 322 336 350 364 378 392 406 420 434 448 462 476 490 504 532 546 560 574 588 602 616 630 644 658 672 686 700 714 728 </domain>
      <domain for="fr[42]"> 28 42 56 84 98 112 140 154 168 182 196 224 238 294 308 336 350 364 378 392 406 434 448 462 490 504 532 546 560 574 602 616 630 644 658 672 686 700 714 728 </domain>
      <domain for="fr[43]"> 14 28 42 56 70 84 98 140 154 168 182 196 210 252 266 294 308 322 336 350 364 378 392 406 420 434 448 490 504 518 532 546 560 574 588 602 616 630 644 658 672 686 700 728 </domain>
      <domain for="fr[44]"> 14 28 42 56 70 84 112 126 140 154 168 182 196 210 224 238 252 266 280 294 308 322 336 350 364 378 392 406 420 434 448 462 476 490 504 532 560 574 588 602 616 630 644 658 686 700 714 </domain>
      <domain for="fr[45]"> 14 28 42 56 70 84 98 112 126 140 154 168 182 196 210 224 238 252 266 280 294 308 322 336 350 364 378 392 406 420 434 448 462 476 490 504 518 532 546 560 574 588 602 616 630 644 658 672 686 714 728 </domain>
      <domain for="fr[46]"> 14 28 56 70 98 112 126 140 168 182 210 224 238 280 294 308 322 336 350 364 378 392 406 420 434 448 476 490 518 546 574 616 630 644 658 672 686 700 714 728 </domain>
      <domain for="fr[47]"> 14 28 56 70 98 112 126 140 168 182 210 224 266 280 294 322 336 350 364 378 392 406 420 434 448 462 476 490 504 532 546 560 574 588 602 616 630 658 672 700 714 728 </domain>
      <domain for="fr[48]"> 14 28 42 56 70 84 112 126 140 154 168 182 196 210 224 238 252 266 280 294 308 322 336 350 364 378 392 406 420 434 448 462 476 490 504 518 532 560 574 588 602 616 630 658 686 700 714 728 </domain>
      <domain for="fr[49]"> 14 28 42 56 70 84 98 112 126 140 154 168 182 196 210 224 252 266 280 308 322 336 350 364 378 392 406 434 448 462 476 490 504 518 532 546 560 574 588 602 616 630 644 658 686 700 714 728 </domain>
    </array>
  </variables>
  <constraints>
    <intension> eq(dist(fe[0],fr[0]),238) </intension>
    <intension> eq(dist(fe[1],fr[1]),238) </intension>
    <intension> eq(dist(fe[2],fr[2]),238) </intension>
    <intension> eq(dist(fe[3],fr[3]),238) </intension>
    <intension> eq(dist(fe[4],fr[4]),238) </intension>
    <intension> eq(dist(fe[5],fr[5]),238) </intension>
    <intension> eq(dist(fe[6],fr[6]),238) </intension>
    <intension> eq(dist(fe[7],fr[7]),238) </intension>
    <intension> eq(dist(fe[8],fr[8]),238) </intension>
    <intension> eq(dist(fe[9],fr[9]),238) </intension>
    <intension> eq(dist(fe[10],fr[10]),238) </intension>
    <intension> eq(dist(fe[11],fr[11]),238) </intension>
    <intension> eq(dist(fe[12],fr[12]),238) </intension>
    <intension> eq(dist(fe[13],fr[13]),238) </intension>
    <intension> eq(dist(fe[14],fr[14]),238) </intension>
    <intension> eq(dist(fe[15],fr[15]),238) </intension>
    <intension> eq(dist(fe[16],fr[16]),238) </intension>
    <intension> eq(dist(fe[17],fr[17]),238) </intension>
    <intension> eq(dist(fe[18],fr[18]),238) </intension>
    <intension> eq(dist(fe[19],fr[19]),238) </intension>
    <intension> eq(dist(fe[20],fr[20]),238) </intension>
    <intension> eq(dist(fe[21],fr[21]),238) </intension>
    <intension> eq(dist(fe[22],fr[22]),238) </intension>
    <intension> eq(dist(fe[23],fr[23]),238) </intension>
    <intension> eq(dist(fe[24],fr[24]),238) </intension>
    <intension> eq(dist(fe[25],fr[25]),238) </intension>
    <intension> eq(dist(fe[26],fr[26]),238) </intension>
    <intension> eq(dist(fe[27],fr[27]),238) </intension>
    <intension> eq(dist(fe[28],fr[28]),238) </intension>
    <intension> eq(dist(fe[29],fr[29]),238) </intension>
    <intension> eq(dist(fe[30],fr[30]),238) </intension>
    <intension> eq(dist(fe[31],fr[31]),238) </intension>
    <intension> eq(dist(fe[32],fr[32]),238) </intension>
    <intension> eq(dist(fe[33],fr[33]),238) </intension>
    <intension> eq(dist(fe[34],fr[34]),238) </intension>
    <intension> eq(dist(fe[35],fr[35]),238) </intension>
    <intension> eq(dist(fe[36],fr[36]),238) </intension>
    <intension> eq(dist(fe[37],fr[37]),238) </intension>
    <intension> eq(dist(fe[38],fr[38]),238) </intension>
    <intension> eq(dist(fe[39],fr[39]),238) </intension>
    <intension> eq(dist(fe[40],fr[40]),238) </intension>
    <intension> eq(dist(fe[41],fr[41]),238) </intension>
    <intension> eq(dist(fe[42],fr[42]),238) </intension>
    <intension> eq(dist(fe[43],fr[43]),238) </intension>
    <intension> eq(dist(fe[44],fr[44]),238) </intension>
    <intension> eq(dist(fe[45],fr[45]),238) </intension>
    <intension> eq(dist(fe[46],fr[46]),238) </intension>
    <intension> eq(dist(fe[47],fr[47]),238) </intension>
    <intension> eq(dist(fe[48],fr[48]),238) </intension>
    <intension> eq(dist(fe[49],fr[49]),238) </intension>
    <intension> ge(dist(fe[0],fe[7]),30) </intension>
    <intension> ge(dist(fr[0],fr[7]),30) </intension>
    <intension> ge(dist(fe[0],fe[18]),20) </intension>
    <intension> ge(dist(fr[0],fr[18]),20) </intension>
    <intension> ge(dist(fe[0],fe[36]),20) </intension>
    <intension> ge(dist(fr[0],fr[36]),20) </intension>
    <intension> ge(dist(fe[0],fe[35]),30) </intension>
    <intension> ge(dist(fr[0],fr[35]),30) </intension>
    <intension> ge(dist(fe[0],fe[31]),40) </intension>
    <intension> ge(dist(fr[0],fr[31]),40) </intension>
    <intension> ge(dist(fe[1],fe[22]),30) </intension>
    <intension> ge(dist(fr[1],fr[22]),30) </intension>
    <intension> ge(dist(fe[1],fe[19]),30) </intension>
    <intension> ge(dist(fr[1],fr[19]),30) </intension>
    <intension> ge(dist(fe[2],fe[11]),40) </intension>
    <intension> ge(dist(fr[2],fr[11]),40) </intension>
    <intension> ge(dist(fe[2],fe[26]),20) </intension>
    <intension> ge(dist(fr[2],fr[26]),20) </intension>
    <intension> ge(dist(fe[3],fe[5]),50) </intension>
    <intension> ge(dist(fr[3],fr[5]),50) </intension>
    <intension> ge(dist(fe[3],fe[44]),30) </intension>
    <intension> ge(dist(fr[3],fr[44]),30) </intension>
    <intension> ge(dist(fe[3],fe[6]),30) </intension>
    <intension> ge(dist(fr[3],fr[6]),30) </intension>
    <intension> ge(dist(fe[4],fe[7]),50) </intension>
    <intension> ge(dist(fr[4],fr[7]),50) </intension>
    <intension> ge(dist(fe[5],fe[10]),30) </intension>
    <intension> ge(dist(fr[5],fr[10]),30) </intension>
    <intension> ge(dist(fe[6],fe[30]),50) </intension>
    <intension> ge(dist(fr[6],fr[30]),50) </intension>
    <intension> ge(dist(fe[6],fe[24]),30) </intension>
    <intension> ge(dist(fr[6],fr[24]),30) </intension>
    <intension> ge(dist(fe[6],fe[22]),50) </intension>
    <intension> ge(dist(fr[6],fr[22]),50) </intension>
    <intension> ge(dist(fe[6],fe[12]),40) </intension>
    <intension> ge(dist(fr[6],fr[12]),40) </intension>
    <intension> ge(dist(fe[6],fe[29]),50) </intension>
    <intension> ge(dist(fr[6],fr[29]),50) </intension>
    <intension> ge(dist(fe[6],fe[46]),20) </intension>
    <intension> ge(dist(fr[6],fr[46]),20) </intension>
    <intension> ge(dist(fe[6],fe[37]),30) </intension>
    <intension> ge(dist(fr[6],fr[37]),30) </intension>
    <intension> ge(dist(fe[6],fe[13]),50) </intension>
    <intension> ge(dist(fr[6],fr[13]),50) </intension>
    <intension> ge(dist(fe[6],fe[11]),40) </intension>
    <intension> ge(dist(fr[6],fr[11]),40) </intension>
    <intension> ge(dist(fe[7],fe[35]),50) </intension>
    <intension> ge(dist(fr[7],fr[35]),50) </intension>
    <intension> ge(dist(fe[8],fe[45]),20) </intension>
    <intension> ge(dist(fr[8],fr[45]),20) </intension>
    <intension> ge(dist(fe[9],fe[23]),20) </intension>
    <intension> ge(dist(fr[9],fr[23]),20) </intension>
    <intension> ge(dist(fe[10],fe[16]),40) </intension>
    <intension> ge(dist(fr[10],fr[16]),40) </intension>
    <intension> ge(dist(fe[10],fe[11]),30) </intension>
    <intension> ge(dist(fr[10],fr[11]),30) </intension>
    <intension> ge(dist(fe[12],fe[35]),30) </intension>
    <intension> ge(dist(fr[12],fr[35]),30) </intension>
    <intension> ge(dist(fe[13],fe[26]),30) </intension>
    <intension> ge(dist(fr[13],fr[26]),30) </intension>
    <intension> ge(dist(fe[13],fe[35]),20) </intension>
    <intension> ge(dist(fr[13],fr[35]),20) </intension>
    <intension> ge(dist(fe[14],fe[49]),50) </intension>
    <intension> ge(dist(fr[14],fr[49]),50) </intension>
    <intension> ge(dist(fe[15],fe[21]),40) </intension>
    <intension> ge(dist(fr[15],fr[21]),40) </intension>
    <intension> ge(dist(fe[15],fe[20]),30) </intension>
    <intension> ge(dist(fr[15],fr[20]),30) </intension>
    <intension> ge(dist(fe[16],fe[28]),40) </intension>
    <intension> ge(dist(fr[16],fr[28]),40) </intension>
    <intension> ge(dist(fe[16],fe[48]),40) </intension>
    <intension> ge(dist(fr[16],fr[48]),40) </intension>
    <intension> ge(dist(fe[17],fe[39]),30) </intension>
    <intension> ge(dist(fr[17],fr[39]),30) </intension>
    <intension> ge(dist(fe[17],fe[35]),20) </intension>
    <intension> ge(dist(fr[17],fr[35]),20) </intension>
    <intension> ge(dist(fe[18],fe[21]),20) </intension>
    <intension> ge(dist(fr[18],fr[21]),20) </intension>
    <intension> ge(dist(fe[18],fe[36]),50) </intension>
    <intension> ge(dist(fr[18],fr[36]),50) </intension>
    <intension> ge(dist(fe[19],fe[45]),30) </intension>
    <intension> ge(dist(fr[19],fr[45]),30) </intension>
    <intension> ge(dist(fe[19],fe[38]),20) </intension>
    <intension> ge(dist(fr[19],fr[38]),20) </intension>
    <intension> ge(dist(fe[19],fe[25]),50) </intension>
    <intension> ge(dist(fr[19],fr[25]),50) </intension>
    <intension> ge(dist(fe[19],fe[46]),30) </intension>
    <intension> ge(dist(fr[19],fr[46]),30) </intension>
    <intension> ge(dist(fe[22],fe[24]),30) </intension>
    <intension> ge(dist(fr[22],fr[24]),30) </intension>
    <intension> ge(dist(fe[22],fe[49]),50) </intension>
    <intension> ge(dist(fr[22],fr[49]),50) </intension>
    <intension> ge(dist(fe[22],fe[27]),20) </intension>
    <intension> ge(dist(fr[22],fr[27]),20) </intension>
    <intension> ge(dist(fe[23],fe[34]),40) </intension>
    <intension> ge(dist(fr[23],fr[34]),40) </intension>
    <intension> ge(dist(fe[23],fe[47]),20) </intension>
    <intension> ge(dist(fr[23],fr[47]),20) </intension>
    <intension> ge(dist(fe[23],fe[44]),40) </intension>
    <intension> ge(dist(fr[23],fr[44]),40) </intension>
    <intension> ge(dist(fe[24],fe[32]),50) </intension>
    <intension> ge(dist(fr[24],fr[32]),50) </intension>
    <intension> ge(dist(fe[25],fe[39]),20) </intension>
    <intension> ge(dist(fr[25],fr[39]),20) </intension>
    <intension> ge(dist(fe[27],fe[40]),40) </intension>
    <intension> ge(dist(fr[27],fr[40]),40) </intension>
    <intension> ge(dist(fe[27],fe[33]),50) </intension>
    <intension> ge(dist(fr[27],fr[33]),50) </intension>
    <intension> ge(dist(fe[27],fe[29]),30) </intension>
    <intension> ge(dist(fr[27],fr[29]),30) </intension>
    <intension> ge(dist(fe[35],fe[43]),40) </intension>
    <intension> ge(dist(fr[35],fr[43]),40) </intension>
    <intension> ge(dist(fe[41],fe[47]),30) </intension>
    <intension> ge(dist(fr[41],fr[47]),30) </intension>
    <intension> ge(dist(fe[43],fe[46]),40) </intension>
    <intension> ge(dist(fr[43],fr[46]),40) </intension>
    <nValues>
      <list> fe[6] fe[13] fe[15] fe[20] fe[26] fe[36..37] fr[6] fr[13] fr[15] fr[20] fr[26] fr[36..37] </list>
      <condition> (le,13) </condition>
    </nValues>
    <nValues>
      <list> fe[8] fe[24] fe[30] fe[32] fe[38] fe[42] fe[45] fr[8] fr[24] fr[30] fr[32] fr[38] fr[42] fr[45] </list>
      <condition> (le,13) </condition>
    </nValues>
    <nValues>
      <list> fe[0] fe[3..4] fe[7] fe[18] fe[21] fr[0] fr[3..4] fr[7] fr[18] fr[21] </list>
      <condition> (le,12) </condition>
    </nValues>
    <nValues>
      <list> fe[1] fe[14] fe[22] fe[25] fe[27] fe[33] fe[40] fe[49] fr[1] fr[14] fr[22] fr[25] fr[27] fr[33] fr[40] fr[49] </list>
      <condition> (le,15) </condition>
    </nValues>
    <nValues>
      <list> fe[9] fe[23] fe[34..35] fe[41] fe[44] fe[47] fr[9] fr[23] fr[34..35] fr[41] fr[44] fr[47] </list>
      <condition> (le,14) </condition>
    </nValues>
    <nValues>
      <list> fe[2] fe[5] fe[10..11] fe[16] fe[28] fe[31] fe[48] fr[2] fr[5] fr[10..11] fr[16] fr[28] fr[31] fr[48] </list>
      <condition> (le,14) </condition>
    </nValues>
    <nValues>
      <list> fe[12] fe[17] fe[19] fe[29] fe[39] fe[43] fe[46] fr[12] fr[17] fr[19] fr[29] fr[39] fr[43] fr[46] </list>
      <condition> (le,14) </condition>
    </nValues>
  </constraints>
  <objectives>
    <minimize type="sum"> fe[] fr[] </minimize>
  </objectives>
</instance>
